55
1 0 7
2 0 1
2 1 7
3 0 1
3 1 7
3 2 7
4 0 7
4 1 9
4 2 4
4 3 9
5 0 5
5 1 9
5 2 1
5 3 5
5 4 9
6 0 9
6 1 5
6 2 10
6 3 10
6 4 2
6 5 8
7 0 5
7 1 10
7 2 10
7 3 10
7 4 3
7 5 8
7 6 4
8 0 8
8 1 7
8 2 1
8 3 6
8 4 4
8 5 1
8 6 2
8 7 8
9 0 10
9 1 1
9 2 5
9 3 5
9 4 2
9 5 1
9 6 5
9 7 4
9 8 3
10 0 2
10 1 7
10 2 3
10 3 5
10 4 4
10 5 3
10 6 1
10 7 1
10 8 4
10 9 1
11 0 8
11 1 5
11 2 9
11 3 10
11 4 4
11 5 7
11 6 5
11 7 1
11 8 1
11 9 7
11 10 2
12 0 8
12 1 8
12 2 8
12 3 7
12 4 6
12 5 10
12 6 7
12 7 6
12 8 10
12 9 1
12 10 7
12 11 10
13 0 5
13 1 2
13 2 5
13 3 7
13 4 6
13 5 9
13 6 5
13 7 2
13 8 9
13 9 9
13 10 1
13 11 7
13 12 10
14 0 7
14 1 4
14 2 7
14 3 1
14 4 8
14 5 10
14 6 2
14 7 2
14 8 3
14 9 7
14 10 6
14 11 10
14 12 1
14 13 9
15 0 8
15 1 2
15 2 6
15 3 9
15 4 3
15 5 6
15 6 4
15 7 8
15 8 2
15 9 7
15 10 4
15 11 2
15 12 2
15 13 9
15 14 5
16 0 1
16 1 4
16 2 5
16 3 6
16 4 4
16 5 5
16 6 9
16 7 7
16 8 7
16 9 7
16 10 3
16 11 10
16 12 4
16 13 3
16 14 5
16 15 8
17 0 9
17 1 3
17 2 8
17 3 6
17 4 8
17 5 4
17 6 7
17 7 7
17 8 7
17 9 9
17 10 4
17 11 9
17 12 4
17 13 1
17 14 2
17 15 4
17 16 5
18 0 3
18 1 5
18 2 7
18 3 5
18 4 2
18 5 4
18 6 3
18 7 7
18 8 3
18 9 10
18 10 9
18 11 3
18 12 3
18 13 5
18 14 7
18 15 5
18 16 2
18 17 5
19 0 10
19 1 1
19 2 10
19 3 7
19 4 1
19 5 2
19 6 8
19 7 7
19 8 10
19 9 8
19 10 3
19 11 9
19 12 3
19 13 8
19 14 4
19 15 9
19 16 1
19 17 4
19 18 9
20 0 1
20 1 4
20 2 10
20 3 9
20 4 6
20 5 1
20 6 5
20 7 10
20 8 9
20 9 8
20 10 4
20 11 2
20 12 5
20 13 9
20 14 2
20 15 2
20 16 1
20 17 6
20 18 5
20 19 7
21 0 2
21 1 5
21 2 7
21 3 9
21 4 8
21 5 6
21 6 3
21 7 6
21 8 6
21 9 3
21 10 4
21 11 5
21 12 10
21 13 4
21 14 5
21 15 6
21 16 7
21 17 9
21 18 7
21 19 1
21 20 8
22 0 1
22 1 10
22 2 6
22 3 2
22 4 2
22 5 2
22 6 8
22 7 10
22 8 10
22 9 9
22 10 7
22 11 9
22 12 2
22 13 9
22 14 2
22 15 5
22 16 1
22 17 5
22 18 1
22 19 5
22 20 2
22 21 1
23 0 4
23 1 10
23 2 7
23 3 9
23 4 9
23 5 8
23 6 2
23 7 4
23 8 4
23 9 5
23 10 4
23 11 8
23 12 8
23 13 2
23 14 10
23 15 7
23 16 8
23 17 4
23 18 5
23 19 1
23 20 10
23 21 6
23 22 6
24 0 4
24 1 3
24 2 2
24 3 7
24 4 8
24 5 9
24 6 8
24 7 2
24 8 10
24 9 6
24 10 6
24 11 4
24 12 6
24 13 1
24 14 1
24 15 6
24 16 1
24 17 4
24 18 2
24 19 8
24 20 7
24 21 10
24 22 4
24 23 7
25 0 2
25 1 9
25 2 1
25 3 2
25 4 3
25 5 5
25 6 7
25 7 2
25 8 10
25 9 10
25 10 4
25 11 9
25 12 2
25 13 8
25 14 2
25 15 10
25 16 2
25 17 9
25 18 6
25 19 8
25 20 4
25 21 2
25 22 5
25 23 2
25 24 4
26 0 9
26 1 9
26 2 3
26 3 7
26 4 9
26 5 1
26 6 3
26 7 7
26 8 10
26 9 2
26 10 10
26 11 4
26 12 4
26 13 10
26 14 4
26 15 7
26 16 3
26 17 6
26 18 5
26 19 7
26 20 7
26 21 7
26 22 5
26 23 8
26 24 6
26 25 8
27 0 3
27 1 10
27 2 2
27 3 3
27 4 6
27 5 9
27 6 9
27 7 10
27 8 8
27 9 6
27 10 2
27 11 2
27 12 1
27 13 9
27 14 8
27 15 1
27 16 9
27 17 9
27 18 2
27 19 2
27 20 4
27 21 10
27 22 8
27 23 6
27 24 3
27 25 5
27 26 5
28 0 2
28 1 2
28 2 2
28 3 5
28 4 5
28 5 10
28 6 8
28 7 10
28 8 9
28 9 9
28 10 2
28 11 9
28 12 5
28 13 2
28 14 6
28 15 5
28 16 7
28 17 4
28 18 10
28 19 10
28 20 3
28 21 10
28 22 7
28 23 8
28 24 5
28 25 1
28 26 8
28 27 9
29 0 7
29 1 8
29 2 9
29 3 10
29 4 4
29 5 1
29 6 9
29 7 2
29 8 5
29 9 3
29 10 6
29 11 10
29 12 2
29 13 9
29 14 8
29 15 8
29 16 6
29 17 6
29 18 1
29 19 6
29 20 1
29 21 5
29 22 2
29 23 9
29 24 4
29 25 3
29 26 4
29 27 4
29 28 5
30 0 8
30 1 6
30 2 1
30 3 9
30 4 7
30 5 7
30 6 7
30 7 2
30 8 10
30 9 9
30 10 9
30 11 2
30 12 4
30 13 9
30 14 10
30 15 5
30 16 6
30 17 6
30 18 6
30 19 4
30 20 6
30 21 2
30 22 7
30 23 3
30 24 6
30 25 6
30 26 6
30 27 3
30 28 6
30 29 1
31 0 4
31 1 4
31 2 8
31 3 7
31 4 5
31 5 10
31 6 9
31 7 4
31 8 4
31 9 4
31 10 5
31 11 9
31 12 9
31 13 9
31 14 4
31 15 1
31 16 3
31 17 1
31 18 7
31 19 6
31 20 7
31 21 8
31 22 3
31 23 4
31 24 5
31 25 4
31 26 1
31 27 7
31 28 9
31 29 1
31 30 1
32 0 5
32 1 7
32 2 2
32 3 9
32 4 5
32 5 1
32 6 5
32 7 6
32 8 1
32 9 3
32 10 4
32 11 4
32 12 1
32 13 7
32 14 9
32 15 4
32 16 7
32 17 7
32 18 10
32 19 5
32 20 7
32 21 2
32 22 9
32 23 6
32 24 2
32 25 1
32 26 10
32 27 2
32 28 9
32 29 4
32 30 9
32 31 2
33 0 5
33 1 6
33 2 1
33 3 6
33 4 3
33 5 6
33 6 4
33 7 5
33 8 8
33 9 9
33 10 8
33 11 8
33 12 10
33 13 1
33 14 6
33 15 6
33 16 3
33 17 4
33 18 1
33 19 4
33 20 3
33 21 7
33 22 8
33 23 8
33 24 9
33 25 7
33 26 1
33 27 1
33 28 6
33 29 2
33 30 8
33 31 10
33 32 2
34 0 3
34 1 1
34 2 9
34 3 1
34 4 7
34 5 5
34 6 10
34 7 6
34 8 5
34 9 2
34 10 10
34 11 8
34 12 1
34 13 6
34 14 8
34 15 8
34 16 10
34 17 8
34 18 5
34 19 7
34 20 8
34 21 9
34 22 8
34 23 1
34 24 3
34 25 5
34 26 2
34 27 6
34 28 2
34 29 6
34 30 1
34 31 2
34 32 7
34 33 7
35 0 8
35 1 8
35 2 6
35 3 5
35 4 4
35 5 7
35 6 1
35 7 8
35 8 8
35 9 1
35 10 8
35 11 1
35 12 9
35 13 8
35 14 10
35 15 6
35 16 6
35 17 2
35 18 1
35 19 3
35 20 3
35 21 6
35 22 10
35 23 9
35 24 4
35 25 5
35 26 3
35 27 5
35 28 9
35 29 6
35 30 7
35 31 6
35 32 2
35 33 3
35 34 5
36 0 3
36 1 10
36 2 9
36 3 6
36 4 8
36 5 10
36 6 9
36 7 5
36 8 8
36 9 8
36 10 2
36 11 7
36 12 6
36 13 4
36 14 3
36 15 5
36 16 5
36 17 4
36 18 8
36 19 2
36 20 1
36 21 10
36 22 8
36 23 6
36 24 2
36 25 2
36 26 3
36 27 6
36 28 2
36 29 4
36 30 1
36 31 5
36 32 7
36 33 10
36 34 2
36 35 9
37 0 4
37 1 10
37 2 7
37 3 9
37 4 4
37 5 1
37 6 10
37 7 1
37 8 6
37 9 5
37 10 8
37 11 9
37 12 10
37 13 6
37 14 3
37 15 7
37 16 10
37 17 9
37 18 2
37 19 1
37 20 6
37 21 2
37 22 9
37 23 8
37 24 8
37 25 9
37 26 5
37 27 9
37 28 3
37 29 2
37 30 5
37 31 5
37 32 4
37 33 2
37 34 6
37 35 5
37 36 1
38 0 3
38 1 1
38 2 7
38 3 2
38 4 7
38 5 9
38 6 1
38 7 2
38 8 3
38 9 10
38 10 9
38 11 10
38 12 10
38 13 8
38 14 6
38 15 4
38 16 1
38 17 5
38 18 2
38 19 2
38 20 8
38 21 10
38 22 1
38 23 8
38 24 8
38 25 5
38 26 9
38 27 8
38 28 3
38 29 7
38 30 3
38 31 7
38 32 1
38 33 4
38 34 3
38 35 8
38 36 1
38 37 7
39 0 4
39 1 5
39 2 3
39 3 10
39 4 10
39 5 8
39 6 3
39 7 9
39 8 1
39 9 3
39 10 1
39 11 7
39 12 6
39 13 8
39 14 6
39 15 3
39 16 5
39 17 10
39 18 4
39 19 8
39 20 4
39 21 1
39 22 2
39 23 1
39 24 2
39 25 7
39 26 5
39 27 3
39 28 1
39 29 2
39 30 5
39 31 8
39 32 7
39 33 7
39 34 6
39 35 3
39 36 8
39 37 8
39 38 5
40 0 4
40 1 7
40 2 7
40 3 2
40 4 1
40 5 3
40 6 6
40 7 10
40 8 5
40 9 7
40 10 3
40 11 7
40 12 2
40 13 10
40 14 8
40 15 4
40 16 8
40 17 3
40 18 4
40 19 7
40 20 4
40 21 8
40 22 3
40 23 1
40 24 9
40 25 1
40 26 2
40 27 2
40 28 4
40 29 7
40 30 5
40 31 2
40 32 2
40 33 10
40 34 1
40 35 1
40 36 4
40 37 8
40 38 4
40 39 4
41 0 1
41 1 2
41 2 2
41 3 10
41 4 8
41 5 4
41 6 10
41 7 10
41 8 5
41 9 8
41 10 4
41 11 10
41 12 10
41 13 2
41 14 6
41 15 10
41 16 8
41 17 8
41 18 5
41 19 5
41 20 7
41 21 6
41 22 1
41 23 9
41 24 7
41 25 1
41 26 8
41 27 6
41 28 3
41 29 5
41 30 4
41 31 4
41 32 4
41 33 4
41 34 3
41 35 9
41 36 1
41 37 6
41 38 3
41 39 8
41 40 2
42 0 3
42 1 2
42 2 7
42 3 1
42 4 7
42 5 9
42 6 1
42 7 6
42 8 3
42 9 4
42 10 1
42 11 6
42 12 4
42 13 10
42 14 1
42 15 8
42 16 7
42 17 9
42 18 2
42 19 9
42 20 3
42 21 4
42 22 8
42 23 5
42 24 1
42 25 7
42 26 2
42 27 3
42 28 5
42 29 10
42 30 6
42 31 4
42 32 9
42 33 10
42 34 8
42 35 6
42 36 10
42 37 2
42 38 7
42 39 6
42 40 4
42 41 1
43 0 3
43 1 9
43 2 10
43 3 9
43 4 9
43 5 2
43 6 5
43 7 4
43 8 9
43 9 6
43 10 3
43 11 1
43 12 2
43 13 6
43 14 8
43 15 6
43 16 1
43 17 3
43 18 6
43 19 1
43 20 3
43 21 6
43 22 3
43 23 10
43 24 8
43 25 6
43 26 1
43 27 9
43 28 2
43 29 10
43 30 5
43 31 3
43 32 1
43 33 4
43 34 4
43 35 10
43 36 5
43 37 2
43 38 10
43 39 3
43 40 1
43 41 9
43 42 3
44 0 1
44 1 1
44 2 8
44 3 1
44 4 3
44 5 2
44 6 10
44 7 8
44 8 1
44 9 1
44 10 1
44 11 2
44 12 8
44 13 6
44 14 2
44 15 3
44 16 9
44 17 4
44 18 4
44 19 9
44 20 6
44 21 3
44 22 8
44 23 1
44 24 10
44 25 9
44 26 5
44 27 10
44 28 1
44 29 7
44 30 5
44 31 9
44 32 4
44 33 5
44 34 8
44 35 5
44 36 5
44 37 10
44 38 2
44 39 5
44 40 1
44 41 5
44 42 5
44 43 2
45 0 10
45 1 5
45 2 9
45 3 3
45 4 1
45 5 6
45 6 7
45 7 6
45 8 10
45 9 9
45 10 1
45 11 8
45 12 5
45 13 6
45 14 7
45 15 7
45 16 3
45 17 2
45 18 5
45 19 6
45 20 9
45 21 8
45 22 5
45 23 8
45 24 2
45 25 9
45 26 2
45 27 2
45 28 10
45 29 8
45 30 3
45 31 1
45 32 10
45 33 4
45 34 10
45 35 1
45 36 8
45 37 2
45 38 4
45 39 9
45 40 1
45 41 9
45 42 2
45 43 2
45 44 10
46 0 4
46 1 9
46 2 5
46 3 5
46 4 1
46 5 8
46 6 6
46 7 3
46 8 8
46 9 8
46 10 3
46 11 1
46 12 10
46 13 5
46 14 1
46 15 8
46 16 8
46 17 7
46 18 8
46 19 6
46 20 5
46 21 1
46 22 9
46 23 9
46 24 10
46 25 5
46 26 1
46 27 3
46 28 8
46 29 3
46 30 5
46 31 9
46 32 7
46 33 4
46 34 7
46 35 5
46 36 7
46 37 9
46 38 9
46 39 8
46 40 1
46 41 9
46 42 6
46 43 5
46 44 9
46 45 2
47 0 7
47 1 7
47 2 2
47 3 5
47 4 9
47 5 6
47 6 5
47 7 9
47 8 4
47 9 9
47 10 2
47 11 2
47 12 8
47 13 6
47 14 6
47 15 2
47 16 9
47 17 10
47 18 4
47 19 7
47 20 2
47 21 3
47 22 9
47 23 3
47 24 4
47 25 3
47 26 1
47 27 3
47 28 1
47 29 9
47 30 4
47 31 1
47 32 8
47 33 1
47 34 8
47 35 10
47 36 4
47 37 5
47 38 4
47 39 9
47 40 2
47 41 3
47 42 10
47 43 3
47 44 6
47 45 2
47 46 8
48 0 3
48 1 8
48 2 4
48 3 7
48 4 4
48 5 10
48 6 8
48 7 3
48 8 4
48 9 8
48 10 7
48 11 6
48 12 4
48 13 2
48 14 6
48 15 9
48 16 9
48 17 5
48 18 7
48 19 8
48 20 5
48 21 3
48 22 2
48 23 10
48 24 10
48 25 6
48 26 4
48 27 2
48 28 4
48 29 2
48 30 2
48 31 10
48 32 5
48 33 8
48 34 8
48 35 3
48 36 8
48 37 10
48 38 1
48 39 6
48 40 2
48 41 1
48 42 10
48 43 9
48 44 10
48 45 2
48 46 2
48 47 3
49 0 3
49 1 4
49 2 3
49 3 3
49 4 4
49 5 4
49 6 6
49 7 7
49 8 1
49 9 10
49 10 9
49 11 8
49 12 5
49 13 5
49 14 2
49 15 4
49 16 1
49 17 10
49 18 6
49 19 6
49 20 5
49 21 6
49 22 7
49 23 7
49 24 5
49 25 8
49 26 3
49 27 4
49 28 1
49 29 4
49 30 7
49 31 4
49 32 1
49 33 3
49 34 9
49 35 3
49 36 2
49 37 5
49 38 2
49 39 1
49 40 8
49 41 9
49 42 5
49 43 8
49 44 1
49 45 1
49 46 2
49 47 6
49 48 2
50 0 1
50 1 1
50 2 9
50 3 2
50 4 3
50 5 5
50 6 6
50 7 4
50 8 6
50 9 4
50 10 5
50 11 5
50 12 8
50 13 8
50 14 7
50 15 5
50 16 4
50 17 10
50 18 3
50 19 7
50 20 7
50 21 10
50 22 8
50 23 3
50 24 10
50 25 6
50 26 7
50 27 4
50 28 3
50 29 8
50 30 5
50 31 9
50 32 2
50 33 4
50 34 3
50 35 3
50 36 4
50 37 2
50 38 9
50 39 9
50 40 10
50 41 2
50 42 4
50 43 6
50 44 4
50 45 5
50 46 4
50 47 2
50 48 2
50 49 7
51 0 6
51 1 4
51 2 7
51 3 8
51 4 6
51 5 4
51 6 7
51 7 3
51 8 4
51 9 2
51 10 10
51 11 5
51 12 3
51 13 3
51 14 8
51 15 10
51 16 4
51 17 5
51 18 9
51 19 2
51 20 6
51 21 6
51 22 4
51 23 7
51 24 10
51 25 5
51 26 3
51 27 2
51 28 3
51 29 5
51 30 4
51 31 6
51 32 6
51 33 2
51 34 3
51 35 2
51 36 10
51 37 10
51 38 1
51 39 3
51 40 4
51 41 6
51 42 1
51 43 6
51 44 8
51 45 7
51 46 10
51 47 6
51 48 6
51 49 4
51 50 7
52 0 8
52 1 10
52 2 4
52 3 9
52 4 6
52 5 6
52 6 7
52 7 1
52 8 7
52 9 10
52 10 6
52 11 1
52 12 7
52 13 7
52 14 1
52 15 5
52 16 8
52 17 9
52 18 10
52 19 6
52 20 2
52 21 10
52 22 4
52 23 8
52 24 5
52 25 7
52 26 8
52 27 5
52 28 5
52 29 2
52 30 4
52 31 5
52 32 7
52 33 5
52 34 10
52 35 10
52 36 7
52 37 10
52 38 6
52 39 5
52 40 5
52 41 7
52 42 5
52 43 8
52 44 5
52 45 6
52 46 9
52 47 8
52 48 7
52 49 9
52 50 7
52 51 1
53 0 10
53 1 6
53 2 10
53 3 4
53 4 8
53 5 5
53 6 8
53 7 10
53 8 4
53 9 9
53 10 2
53 11 4
53 12 6
53 13 4
53 14 9
53 15 1
53 16 7
53 17 8
53 18 10
53 19 2
53 20 10
53 21 2
53 22 3
53 23 9
53 24 2
53 25 6
53 26 6
53 27 9
53 28 10
53 29 5
53 30 6
53 31 2
53 32 6
53 33 5
53 34 10
53 35 7
53 36 6
53 37 8
53 38 7
53 39 9
53 40 1
53 41 4
53 42 1
53 43 9
53 44 8
53 45 6
53 46 5
53 47 6
53 48 1
53 49 6
53 50 2
53 51 2
53 52 4
54 0 2
54 1 6
54 2 4
54 3 10
54 4 4
54 5 3
54 6 6
54 7 6
54 8 5
54 9 8
54 10 1
54 11 6
54 12 4
54 13 8
54 14 10
54 15 5
54 16 3
54 17 2
54 18 1
54 19 1
54 20 9
54 21 7
54 22 9
54 23 10
54 24 7
54 25 5
54 26 9
54 27 5
54 28 1
54 29 3
54 30 8
54 31 3
54 32 6
54 33 2
54 34 5
54 35 9
54 36 7
54 37 8
54 38 1
54 39 8
54 40 7
54 41 1
54 42 1
54 43 9
54 44 5
54 45 1
54 46 6
54 47 9
54 48 4
54 49 1
54 50 8
54 51 2
54 52 2
54 53 2
